c 
c G(n,p) graph
c graph gen seed     : 4511
c number of vertices : 50
c max number of edges: 1225
c edge probability   : 0.200000
c data structure     : sparse
c
c           Graph Stats
c number of vertices  : 50
c nonisolated vertices: 50
c number of edges     : 247
c edge density        : 0.201633
c max degree          : 16
c avg degree          : 9.88
c min degree          : 5
p col 50 247
e 1 47
e 1 40
e 1 35
e 1 27
e 1 24
e 1 20
e 1 15
e 1 13
e 1 7
e 1 2
e 2 37
e 2 34
e 2 33
e 2 31
e 2 30
e 2 29
e 2 26
e 2 23
e 2 20
e 2 15
e 2 5
e 3 47
e 3 40
e 3 38
e 3 35
e 3 34
e 3 31
e 3 27
e 3 21
e 3 18
e 3 10
e 3 6
e 4 29
e 4 28
e 4 27
e 4 20
e 4 10
e 4 9
e 4 6
e 5 44
e 5 41
e 5 26
e 5 23
e 5 11
e 6 46
e 6 35
e 6 32
e 6 22
e 6 15
e 6 14
e 6 9
e 6 8
e 7 26
e 7 23
e 7 17
e 7 13
e 7 8
e 8 49
e 8 40
e 8 39
e 8 35
e 8 32
e 8 27
e 8 22
e 8 17
e 9 36
e 9 17
e 9 16
e 9 15
e 9 11
e 10 50
e 10 45
e 10 41
e 10 38
e 10 35
e 10 34
e 10 31
e 10 26
e 10 21
e 10 16
e 10 15
e 10 12
e 11 48
e 11 46
e 11 40
e 11 27
e 11 23
e 11 18
e 11 17
e 12 50
e 12 49
e 12 46
e 12 45
e 12 37
e 12 31
e 12 29
e 12 25
e 12 17
e 12 13
e 13 44
e 13 41
e 13 36
e 13 35
e 13 33
e 13 31
e 13 27
e 13 26
e 13 20
e 13 14
e 14 46
e 14 39
e 14 38
e 14 33
e 14 22
e 14 15
e 15 49
e 15 48
e 15 43
e 15 42
e 15 41
e 15 36
e 15 32
e 15 22
e 15 21
e 16 43
e 16 39
e 16 27
e 16 25
e 16 23
e 17 49
e 17 31
e 17 29
e 17 19
e 18 48
e 18 41
e 18 35
e 18 27
e 18 19
e 19 47
e 19 43
e 19 40
e 19 37
e 19 34
e 19 33
e 19 24
e 20 50
e 20 47
e 20 37
e 20 36
e 20 33
e 20 32
e 20 26
e 20 22
e 21 37
e 21 32
e 21 28
e 21 27
e 21 23
e 22 49
e 22 45
e 22 43
e 22 41
e 22 35
e 22 26
e 23 45
e 23 42
e 23 38
e 23 35
e 23 31
e 23 25
e 24 50
e 24 48
e 24 37
e 24 36
e 24 34
e 24 33
e 25 45
e 25 41
e 25 34
e 25 32
e 25 30
e 26 48
e 26 47
e 26 46
e 26 45
e 26 42
e 26 41
e 26 36
e 26 29
e 27 47
e 27 36
e 28 43
e 28 42
e 28 36
e 28 32
e 28 30
e 29 50
e 29 45
e 29 43
e 29 42
e 29 38
e 29 36
e 29 32
e 30 44
e 30 34
e 31 49
e 31 42
e 31 37
e 31 35
e 32 42
e 32 41
e 32 36
e 32 34
e 33 50
e 33 45
e 33 43
e 33 42
e 33 40
e 33 36
e 33 34
e 34 50
e 34 49
e 34 44
e 34 43
e 34 38
e 34 37
e 34 35
e 35 49
e 35 48
e 35 40
e 36 50
e 36 49
e 36 48
e 36 47
e 36 40
e 37 48
e 37 40
e 38 44
e 39 46
e 39 45
e 40 43
e 41 42
e 43 50
e 44 47
e 45 49
e 46 49
e 46 47
